NAME : mtspf.pid7428.gtsp.80530748.tour
COMMENT : Length = 80530748
COMMENT : Found by LKH [Keld Helsgaun] Sun Mar  2 16:47:49 2025
TYPE : TOUR
DIMENSION : 45
TOUR_SECTION
1
7
8
9
6
41
38
39
40
4
13
10
11
12
33
30
31
32
45
42
43
44
28
29
26
27
22
23
24
25
5
3
14
15
16
17
18
19
20
21
2
35
36
37
34
-1
EOF
